cpu-bind=MASK - n2lcn0125, task  0  0 [3873273]: mask |--------|--------||--------|--------||--------|--------||--------|--------||||--------|--------||--------|--------||--------|----BBBB||--------|--------|  set
started at Fri Mar 17 08:50:50 CET 2023
Timecheck 10001007.596660126
Set parameter TokenServer to value "license3.uni-paderborn.de"
Warning: Gurobi version mismatch between Python 10.0.1 and C library 10.0.0
Timecheck 10001007.612543449
Timecheck 10001007.61275607
Timecheck 10001007.61278726
Timecheck 10001007.61280833


####################################################################################################
Solve scenario sce_5_26_2 with free vessel operation using the arc flow model
Vessels cannot omit ports, Demands cannot be rejected
####################################################################################################
Data preprocessing, load /upb/departments/pc2/groups/hpc-prf-winf4/dwetzel/SILSRP/inst_final/sce_5_26_2
and create additional sets and parameters
	|- Read vessel information, number of vessels:	13
	|- Read node information, number of nodes:		739
	|- Read arc information
		|- Number of sailing arcs:			6502
		|- Number of transshipment arcs:	1076
	|- Read container information
		|- Number of demands:		3814
		|- Number of empties (+/-):	373/339
	|- Create additional sets and parameters

Data preprocessing took 	00:00:05.272
####################################################################################################
Create linear model
Set parameter Threads to value 4
	|- Create variables, took	00:00:13.250
	|- Create objective, took	00:00:07.686
	|- Create constraints, took	00:00:24.962
	|- Load heuristic start

Creating model took	00:00:45.923
####################################################################################################
Fix start solution

Set parameter TimeLimit to value 6.4845036256218329e+04
Gurobi Optimizer version 10.0.0 build v10.0.0rc2 (linux64)

CPU model: AMD EPYC 7763 64-Core Processor, instruction set [SSE2|AVX|AVX2]
Thread count: 128 physical cores, 128 logical processors, using up to 4 threads

Optimize a model with 336508 rows, 2544171 columns and 8055675 nonzeros
Model fingerprint: 0x8fca7839
Variable types: 2455106 continuous, 89065 integer (89065 binary)
Coefficient statistics:
  Matrix range     [1e+00, 5e+06]
  Objective range  [1e+00, 1e+00]
  Bounds range     [1e+00, 7e+02]
  RHS range        [1e+00, 9e+08]
Presolve removed 271497 rows and 2389993 columns (presolve time = 5s) ...
Presolve removed 288615 rows and 2422192 columns (presolve time = 10s) ...
Presolve removed 289294 rows and 2422188 columns
Presolve time: 10.41s
Presolved: 47214 rows, 121983 columns, 346984 nonzeros
Variable types: 118546 continuous, 3437 integer (3427 binary)
Deterministic concurrent LP optimizer: primal and dual simplex
Showing first log only...


Root simplex log...

Iteration    Objective       Primal Inf.    Dual Inf.      Time
       0    9.2454188e+08   4.421250e+02   2.424306e+08     12s
   68899    3.9954238e+08   0.000000e+00   1.491258e+08     12s
Concurrent spin time: 0.13s

Solved with dual simplex

Root simplex log...

Iteration    Objective       Primal Inf.    Dual Inf.      Time
   15151    4.7080359e+07   0.000000e+00   0.000000e+00     13s

Root relaxation: objective 4.708036e+07, 15151 iterations, 1.02 seconds (0.74 work units)

    Nodes    |    Current Node    |     Objective Bounds      |     Work
 Expl Unexpl |  Obj  Depth IntInf | Incumbent    BestBd   Gap | It/Node Time

     0     0 4.7080e+07    0    1          - 4.7080e+07      -     -   12s
H    0     0                    4.772951e+07 4.7080e+07  1.36%     -   12s
H    0     0                    4.722094e+07 4.7080e+07  0.30%     -   12s
H    0     0                    4.713476e+07 4.7080e+07  0.12%     -   13s
H    0     0                    4.708213e+07 4.7080e+07  0.00%     -   13s

Explored 1 nodes (15151 simplex iterations) in 13.34 seconds (7.23 work units)
Thread count was 4 (of 128 available processors)

Solution count 4: 4.70821e+07 4.71348e+07 4.72209e+07 4.77295e+07 

Optimal solution found (tolerance 1.00e-04)
Best objective 4.708213100000e+07, best bound 4.708035900000e+07, gap 0.0038%

Fixing start solution took	00:01:00.198
####################################################################################################
####################################################################################################
Solve optimization model

Set parameter TimeLimit to value 6.4831553659068421e+04
Gurobi Optimizer version 10.0.0 build v10.0.0rc2 (linux64)

CPU model: AMD EPYC 7763 64-Core Processor, instruction set [SSE2|AVX|AVX2]
Thread count: 128 physical cores, 128 logical processors, using up to 4 threads

Optimize a model with 335770 rows, 2544171 columns and 8054937 nonzeros
Model fingerprint: 0xcd5e38a2
Variable types: 2455106 continuous, 89065 integer (89065 binary)
Coefficient statistics:
  Matrix range     [1e+00, 5e+06]
  Objective range  [1e+00, 1e+00]
  Bounds range     [1e+00, 7e+02]
  RHS range        [1e+00, 9e+08]

Loaded MIP start from previous solve with objective 4.70821e+07

Presolve removed 14490 rows and 13796 columns (presolve time = 5s) ...
Presolve removed 17383 rows and 36147 columns (presolve time = 10s) ...
Presolve removed 17989 rows and 38012 columns (presolve time = 15s) ...
Presolve removed 17989 rows and 38029 columns (presolve time = 20s) ...
Presolve removed 18376 rows and 47560 columns (presolve time = 25s) ...
Presolve removed 19347 rows and 55838 columns (presolve time = 30s) ...
Presolve removed 19347 rows and 55838 columns (presolve time = 35s) ...
Presolve removed 20313 rows and 65153 columns (presolve time = 40s) ...
Presolve removed 20313 rows and 65153 columns (presolve time = 45s) ...
Presolve removed 20313 rows and 65153 columns (presolve time = 50s) ...
Presolve removed 20815 rows and 65268 columns (presolve time = 55s) ...
Presolve removed 20815 rows and 65268 columns
Presolve time: 55.30s
Presolved: 314955 rows, 2478903 columns, 7203125 nonzeros
Variable types: 2396810 continuous, 82093 integer (82092 binary)
Deterministic concurrent LP optimizer: primal simplex, dual simplex, and barrier
Showing barrier log only...

Root barrier log...

Elapsed ordering time = 5s
Elapsed ordering time = 10s
Elapsed ordering time = 15s
Elapsed ordering time = 20s
Elapsed ordering time = 25s
Elapsed ordering time = 30s
Elapsed ordering time = 35s
Elapsed ordering time = 40s
Elapsed ordering time = 45s
Elapsed ordering time = 50s
Elapsed ordering time = 55s
Elapsed ordering time = 60s
Elapsed ordering time = 65s
Elapsed ordering time = 70s
Elapsed ordering time = 75s
Elapsed ordering time = 80s
Elapsed ordering time = 85s
Elapsed ordering time = 90s
Elapsed ordering time = 95s
Elapsed ordering time = 100s
Elapsed ordering time = 105s
Elapsed ordering time = 110s
Elapsed ordering time = 115s
Elapsed ordering time = 120s
Elapsed ordering time = 125s
Ordering time: 129.40s

Barrier statistics:
 AA' NZ     : 6.821e+06
 Factor NZ  : 2.004e+08 (roughly 3.0 GB of memory)
 Factor Ops : 4.875e+11 (roughly 8 seconds per iteration)
 Threads    : 2

                  Objective                Residual
Iter       Primal          Dual         Primal    Dual     Compl     Time
   0   9.26505808e+15 -3.45376242e+15  6.43e+09 2.81e+04  1.63e+13   214s
   1   1.35106677e+15 -8.16002602e+14  8.50e+08 3.27e+04  2.26e+12   227s
   2   1.51067944e+14 -2.64180599e+14  9.25e+07 1.32e-08  2.54e+11   239s
   3   1.83478263e+13 -8.90110858e+13  1.12e+07 9.55e-09  3.10e+10   253s
   4   2.69013411e+12 -3.25359753e+13  1.64e+06 1.43e-08  4.58e+09   267s
   5   4.01313225e+11 -1.38378128e+13  2.44e+05 2.28e-08  6.94e+08   282s
   6   4.04154038e+10 -8.51871231e+12  2.44e+04 1.48e-08  7.17e+07   298s
   7   6.95782736e+09 -6.53364159e+12  4.05e+03 1.33e-08  1.26e+07   311s
   8   9.24897598e+08 -4.37690598e+12  3.17e+02 1.90e-08  1.70e+06   329s
   9   6.16104626e+08 -1.81884882e+12  1.47e+02 1.96e-08  6.66e+05   342s
  10   3.88608325e+08 -7.55636541e+11  5.40e+01 2.24e-08  2.54e+05   360s
  11   2.24818654e+08 -3.54884318e+11  1.74e+01 2.79e-08  1.04e+05   377s
  12   1.47350395e+08 -1.28012547e+11  6.27e+00 1.01e-07  3.63e+04   393s
  13   1.15047144e+08 -3.61671724e+10  8.53e-01 1.03e-07  8.36e+03   409s
  14   9.83934650e+07 -1.91425030e+10  2.71e-01 1.30e-07  4.09e+03   425s
  15   8.76164114e+07 -6.95137565e+09  6.83e-02 5.79e-08  1.44e+03   440s
  16   7.63402864e+07 -2.31869101e+09  9.96e-03 7.34e-08  4.84e+02   454s
  17   6.88467161e+07 -1.78781796e+09  3.99e-03 5.53e-08  3.75e+02   467s
  18   6.36318092e+07 -6.96859298e+08  1.86e-03 5.09e-08  1.53e+02   480s
  19   5.86396918e+07 -3.82836257e+08  1.08e-03 4.40e-08  8.91e+01   492s
  20   5.66712078e+07 -3.11821874e+08  8.83e-04 1.02e-07  7.44e+01   503s
  21   5.43444389e+07 -2.18713809e+08  6.52e-04 7.59e-08  5.51e+01   515s
  22   5.24743120e+07 -1.53269324e+08  5.28e-04 5.39e-08  4.15e+01   526s
  23   4.99571552e+07 -1.11389053e+08  3.92e-04 4.78e-08  3.26e+01   538s
  24   4.70069864e+07 -6.22136990e+07  2.51e-04 3.64e-07  2.20e+01   551s
  25   4.39819841e+07 -3.86021688e+07  1.28e-04 3.10e-07  1.67e+01   565s
  26   4.26991504e+07 -2.22560770e+07  9.83e-05 1.79e-07  1.31e+01   579s
  27   4.15815022e+07 -1.27405761e+07  7.95e-05 1.46e-07  1.10e+01   594s
  28   4.07877371e+07 -4.72489097e+06  6.74e-05 7.40e-08  9.18e+00   607s
  29   4.01489328e+07  7.97638069e+05  5.88e-05 3.36e-07  7.94e+00   622s
  30   3.90819204e+07  7.05733519e+06  4.64e-05 7.61e-08  6.46e+00   640s
  31   3.79515923e+07  1.25148072e+07  3.54e-05 3.33e-07  5.13e+00   657s
  32   3.67432852e+07  1.64198179e+07  2.53e-05 5.12e-07  4.10e+00   672s
  33   3.61383570e+07  1.87430634e+07  2.10e-05 4.36e-07  3.51e+00   687s
  34   3.57762819e+07  2.07714275e+07  1.87e-05 3.80e-07  3.03e+00   702s
  35   3.51840496e+07  2.18849722e+07  1.50e-05 5.18e-07  2.68e+00   715s
  36   3.48993819e+07  2.40668493e+07  1.35e-05 7.95e-07  2.19e+00   729s
  37   3.44301660e+07  2.59378196e+07  1.13e-05 8.22e-07  1.71e+00   743s
  38   3.38238436e+07  2.68891248e+07  8.71e-06 7.51e-07  1.40e+00   757s
  39   3.34371455e+07  2.77501721e+07  7.17e-06 4.37e-07  1.15e+00   770s
  40   3.32573318e+07  2.80001178e+07  6.49e-06 4.25e-07  1.06e+00   784s
  41   3.30229659e+07  2.85605941e+07  5.63e-06 3.15e-07  9.00e-01   797s
  42   3.28096032e+07  2.92427376e+07  4.88e-06 5.00e-07  7.20e-01   811s
  43   3.25759653e+07  2.96711318e+07  4.11e-06 4.02e-07  5.86e-01   826s
  44   3.22975252e+07  3.01274699e+07  3.23e-06 5.00e-07  4.38e-01   840s
  45   3.21654973e+07  3.02254311e+07  9.31e-06 7.76e-07  3.92e-01   854s
  46   3.19818971e+07  3.04926059e+07  7.47e-06 4.60e-07  3.01e-01   871s
  47   3.17787493e+07  3.06578957e+07  5.49e-06 9.39e-07  2.26e-01   887s
  48   3.16748069e+07  3.07200701e+07  4.51e-06 7.24e-07  1.93e-01   902s
  49   3.16444699e+07  3.07780938e+07  4.22e-06 6.91e-07  1.75e-01   915s
  50   3.15519404e+07  3.08744513e+07  3.35e-06 6.16e-07  1.37e-01   930s
  51   3.14451928e+07  3.09457614e+07  2.35e-06 4.63e-07  1.01e-01   945s
  52   3.13686677e+07  3.10167454e+07  1.63e-06 5.03e-07  7.10e-02   959s
  53   3.13106447e+07  3.10613238e+07  1.09e-06 3.16e-07  5.03e-02   977s
  54   3.12527787e+07  3.11138852e+07  5.50e-07 1.00e-07  2.80e-02   994s
  55   3.12160992e+07  3.11545546e+07  2.08e-07 6.88e-07  1.24e-02  1009s
  56   3.11981918e+07  3.11762899e+07  5.28e-08 4.36e-07  4.42e-03  1026s
  57   3.11928499e+07  3.11887087e+07  2.27e-08 2.02e-06  8.37e-04  1039s
  58   3.11916654e+07  3.11908520e+07  4.27e-09 2.84e-05  1.65e-04  1052s
  59   3.11914088e+07  3.11913261e+07  1.71e-08 5.68e-05  1.68e-05  1064s
  60   3.11913460e+07  3.11913350e+07  4.71e-07 5.99e-05  2.23e-06  1076s
  61   3.11913447e+07  3.11913357e+07  2.52e-06 3.96e-03  1.83e-06  1087s
  62   3.11913373e+07  3.11913365e+07  8.36e-06 3.86e-03  1.67e-07  1099s
  63   9.26505810e+15 -3.45670294e+16  6.43e+09 4.37e+03  1.63e+14  1124s
  64   6.53527978e+14 -4.05889381e+15  4.24e+08 6.24e+04  7.37e+12  1138s
  65   1.27252605e+14 -1.24638930e+15  8.09e+07 1.30e-07  1.34e+12  1151s
  66   1.03626939e+13 -2.64576826e+14  6.60e+06 1.70e-07  8.57e+10  1167s
  67   1.25895873e+12 -7.21155526e+13  8.06e+05 7.86e-08  7.44e+09  1184s
  68   1.49084710e+11 -2.33973082e+13  9.77e+04 4.30e-08  5.39e+08  1200s
  69   1.31501596e+10 -4.75929361e+12  9.23e+03 1.11e-08  1.64e+07  1219s
  70   1.34011661e+09 -3.73522825e+11  8.18e+02 2.65e-09  2.65e+05  1238s
  71   5.66935805e+08 -1.39662844e+11  2.59e+02 9.76e-10  6.31e+04  1255s
  72   3.15218613e+08 -7.76676927e+10  1.01e+02 1.07e-09  2.68e+04  1271s
  73   1.67577110e+08 -3.85779108e+10  3.61e+01 1.69e-09  1.12e+04  1288s
  74   1.18040136e+08 -2.21215033e+10  1.54e+01 4.65e-09  5.91e+03  1305s
  75   9.56614713e+07 -9.01926932e+09  7.09e+00 4.57e-09  2.40e+03  1319s
  76   7.81667565e+07 -3.32517959e+09  2.40e+00 1.70e-08  8.20e+02  1332s
  77   6.65184811e+07 -1.47597593e+09  6.24e-01 1.03e-07  3.33e+02  1346s
  78   6.09377515e+07 -7.58414413e+08  2.83e-01 3.19e-07  1.71e+02  1359s
  79   5.72426098e+07 -4.70139061e+08  1.67e-01 1.60e-07  1.09e+02  1372s
  80   5.50207988e+07 -3.49688366e+08  1.24e-01 1.48e-07  8.31e+01  1383s
  81   5.31729675e+07 -2.88233200e+08  9.71e-02 1.57e-07  6.98e+01  1395s
  82   5.07823789e+07 -1.71633650e+08  7.35e-02 4.91e-07  4.54e+01  1408s
  83   4.78889515e+07 -1.05607117e+08  5.09e-02 5.82e-07  3.12e+01  1422s
  84   4.53966279e+07 -6.91586696e+07  3.40e-02 4.94e-07  2.33e+01  1437s
  85   4.30888593e+07 -4.77724350e+07  2.27e-02 5.28e-07  1.84e+01  1453s
  86   4.17860276e+07 -3.14898274e+07  1.83e-02 3.55e-07  1.48e+01  1468s
  87   4.07464446e+07 -1.94930993e+07  1.50e-02 2.77e-07  1.22e+01  1482s
  88   3.94394248e+07 -8.84427507e+06  1.15e-02 3.56e-07  9.77e+00  1498s
  89   3.80693119e+07  2.35697917e+06  8.45e-03 1.30e-06  7.23e+00  1517s
  90   3.68594573e+07  1.10151053e+07  6.32e-03 1.80e-06  5.23e+00  1535s
  91   3.60129785e+07  1.43978018e+07  4.97e-03 1.38e-06  4.37e+00  1553s
  92   3.50136433e+07  1.84985466e+07  3.53e-03 2.00e-06  3.34e+00  1569s
  93   3.41990765e+07  2.23709895e+07  2.53e-03 3.52e-06  2.39e+00  1584s
  94   3.36448534e+07  2.45195906e+07  1.95e-03 2.62e-06  1.84e+00  1597s
  95   3.32137779e+07  2.55644175e+07  1.53e-03 5.77e-06  1.55e+00  1611s
  96   3.28908921e+07  2.70884339e+07  1.24e-03 4.12e-06  1.17e+00  1624s
  97   3.25363767e+07  2.80753308e+07  9.51e-04 8.35e-06  9.02e-01  1637s
  98   3.22579707e+07  2.88382474e+07  7.39e-04 9.09e-06  6.91e-01  1650s
  99   3.20857646e+07  2.91935653e+07  6.10e-04 5.22e-06  5.85e-01  1663s
 100   3.19001831e+07  2.95048094e+07  4.74e-04 6.80e-06  4.84e-01  1675s
 101   3.17616765e+07  3.00838801e+07  3.78e-04 4.15e-06  3.39e-01  1689s
 102   3.16743026e+07  3.01109812e+07  3.18e-04 4.06e-06  3.16e-01  1701s
 103   3.16367994e+07  3.03178685e+07  2.93e-04 2.20e-05  2.67e-01  1714s
 104   3.15093541e+07  3.05683096e+07  2.07e-04 2.16e-05  1.90e-01  1726s
 105   3.14311143e+07  3.07311560e+07  1.56e-04 2.41e-05  1.42e-01  1740s
 106   3.13737965e+07  3.08915865e+07  1.18e-04 3.28e-05  9.76e-02  1754s
 107   3.13071695e+07  3.09946881e+07  7.43e-05 6.34e-05  6.32e-02  1767s
 108   3.12572048e+07  3.10598159e+07  4.19e-05 1.34e-04  3.99e-02  1781s
 109   3.12340855e+07  3.10984514e+07  2.70e-05 1.58e-04  2.74e-02  1795s
 110   3.12177348e+07  3.11272890e+07  1.66e-05 2.48e-04  1.83e-02  1809s
 111   3.12006768e+07  3.11715805e+07  5.79e-06 7.99e-04  5.88e-03  1826s
 112   3.11952245e+07  3.11804290e+07  2.38e-06 4.50e-04  2.99e-03  1842s
 113   3.11918352e+07  3.11897084e+07  4.57e-07 5.17e-03  4.30e-04  1858s
 114   3.11914421e+07  3.11909697e+07  2.12e-07 6.56e-02  9.64e-05  1873s
 115   3.11914353e+07  3.11909698e+07  1.99e-07 6.58e-02  9.50e-05  1889s
 116   3.11914352e+07  3.11909699e+07  1.99e-07 6.58e-02  9.50e-05  1903s
 117   3.11914352e+07  3.11909700e+07  1.99e-07 6.60e-02  9.50e-05  1920s
 118   3.11914352e+07  3.11909526e+07  1.99e-07 5.14e-02  9.48e-05  1938s
 119   3.11914352e+07  3.11909525e+07  1.99e-07 5.13e-02  9.48e-05  1955s
 120   3.11914352e+07  3.11909526e+07  1.99e-07 5.13e-02  9.48e-05  1971s
 121   3.11914353e+07  3.11909538e+07  8.99e-07 5.85e-02  9.49e-05  1986s
 122   3.11914340e+07  3.11909508e+07  8.92e-07 5.85e-02  9.46e-05  2000s
 123   3.11914338e+07  3.11909509e+07  8.87e-07 5.85e-02  9.45e-05  2017s
 124   3.11914312e+07  3.11909509e+07  8.70e-07 5.84e-02  9.40e-05  2029s

Barrier performed 124 iterations in 2029.42 seconds (1682.43 work units)
Sub-optimal termination - objective 3.11914088e+07


Root crossover log...

  294260 DPushes remaining with DInf 0.0000000e+00              2030s
   76909 DPushes remaining with DInf 0.0000000e+00              2033s
    9210 DPushes remaining with DInf 1.2224517e-05              2035s
    3516 DPushes remaining with DInf 0.0000000e+00              2041s

  112665 PPushes remaining with PInf 3.6097388e+00              2041s
   12194 PPushes remaining with PInf 9.5324363e-01              2057s
       0 PPushes remaining with PInf 0.0000000e+00              2059s

  Push phase complete: Pinf 0.0000000e+00, Dinf 1.0116918e+05   2059s


Root simplex log...

Iteration    Objective       Primal Inf.    Dual Inf.      Time
  403405    3.1191337e+07   0.000000e+00   1.011692e+05   2059s
  404583    3.1191337e+07   0.000000e+00   0.000000e+00   2062s
Waiting for other threads to finish...        2126s
Waiting for other threads to finish...        2190s
Waiting for other threads to finish...        2254s
Waiting for other threads to finish...        2317s
Waiting for other threads to finish...        2381s
Waiting for other threads to finish...        2444s
Concurrent spin time: 431.95s (can be avoided by choosing Method=3)

Solved with barrier
  404583    3.1191337e+07   0.000000e+00   0.000000e+00   2495s

Root relaxation: objective 3.119134e+07, 404583 iterations, 2438.58 seconds (1691.33 work units)
Total elapsed time = 2547.17s
Total elapsed time = 2585.78s
Total elapsed time = 2625.11s

    Nodes    |    Current Node    |     Objective Bounds      |     Work
 Expl Unexpl |  Obj  Depth IntInf | Incumbent    BestBd   Gap | It/Node Time

     0     0 3.1191e+07    0 6461 4.7082e+07 3.1191e+07  33.8%     - 2647s
     0     0          -    0      4.7082e+07 3.1191e+07  33.8%     - 64831s

Cutting planes:
  Gomory: 1
  Cover: 3
  Implied bound: 1110
  MIR: 79
  Flow cover: 1914
  RLT: 15
  Relax-and-lift: 364

Explored 1 nodes (4916474 simplex iterations) in 64831.98 seconds (53892.43 work units)
Thread count was 4 (of 128 available processors)

Solution count 1: 4.70821e+07 

Time limit reached
Best objective 4.708213100000e+07, best bound 3.119133653642e+07, gap 33.7512%

Solving took 	18:00:32.035
####################################################################################################
####################################################################################################
####################################################################################################
Reached timelimit, but could find a feasible solution
####################################################################################################
Description                          Value
----------------------------  ------------
Objective (min)               47,082,131.0
Cost sailing                  18,657,696.0
Cost port visits              20,312,996.0
Cost transshipment (demands)   3,016,455.0
Cost transshipment (empties)     547,548.0
Penalty delayed demands        5,414,399.0
Revenue Empties                3,662,863.0
Penalty rejected demands       2,795,900.0
Rejected demands (%)                  0.28
Omitted ports (%)                      0.0
Gap (%)                              33.75
####################################################################################################
Export solution
####################################################################################################
Overall time 	18:01:39.750

real	1081m41.196s
user	1182m54.764s
sys	0m52.904s
finished at Sat Mar 18 02:52:31 CET 2023
